/*********************************************
 * OPL 12.6.0.0 Data
 * Author: QZ61P8
 * Creation Date: 10.07.2014 at 08:59:12
 *********************************************/


nNetworks = 8;
nTime = 25;
nInterfaceTypes = 3;
nFlows = 16;

//channel model: generated Thu May 05 18:28:59 CEST 2016
availChunkBuckets = //[Networks, Time]  
[
	[41, 41, 41, 41, 41, 41, 41, 41, 41, 41, 41, 41, 41, 41, 41, 41, 41, 41, 41, 41, 41, 41, 41, 41, 41],
	[0, 0, 0, 0, 0, 0, 0, 0, 0, 0, 0, 39, 79, 79, 79, 79, 39, 0, 0, 0, 0, 0, 0, 0, 0],
	[0, 0, 58, 58, 0, 0, 0, 0, 0, 0, 0, 0, 0, 0, 0, 0, 0, 0, 0, 0, 0, 0, 0, 0, 0],
	[0, 0, 0, 0, 0, 0, 0, 0, 24, 48, 48, 48, 48, 24, 0, 0, 0, 0, 0, 0, 0, 0, 0, 0, 0],
	[23, 23, 23, 23, 23, 23, 23, 23, 23, 23, 23, 23, 23, 23, 23, 23, 23, 23, 23, 23, 23, 23, 23, 23, 23],
	[0, 44, 44, 0, 0, 0, 0, 0, 0, 0, 0, 0, 0, 0, 0, 0, 0, 0, 0, 0, 0, 0, 0, 0, 0],
	[0, 0, 0, 37, 75, 75, 75, 75, 75, 37, 0, 0, 0, 0, 0, 0, 0, 0, 0, 0, 0, 0, 0, 0, 0],
	[0, 0, 0, 0, 0, 0, 0, 0, 0, 0, 0, 0, 0, 0, 30, 60, 60, 60, 60, 30, 0, 0, 0, 0, 0]
];
	
network_cost = //[Networks] 
	[20, 1, 3, 1, 18, 3, 3, 2];				//static cost per channel (change later to more realistic model)
network_lcy =
	[9, 2, 1, 3, 9, 1, 3, 2];
network_jit =
	[5, 5, 8, 6, 6, 8, 4, 4];	

network_type= //[Networks] 				//each channel has a specific type; e.g. WiFi, LTE..
	[2, 1, 1, 1, 2, 1, 1, 1];		
nClientInterfaces = //[InterfaceTypes]
	[1, 1, 1];	

//requests: generated Thu May 05 18:28:59 CEST 2016
nChunks = 				[131, 288, 78, 262, 175, 385, 105, 350, 193, 426, 116, 387, 212, 467, 127, 425];		//[Flows]		
deadline= 				[16, 16, 9, 12, 17, 22, 19, 15, 14, 17, 20, 5, 17, 14, 14, 17];		//[Flows] 
prefStartTime = 		[4, 0, 1, 6, 5, 0, 5, 7, 6, 0, 10, 1, 5, 0, 9, 8];		//[Flows]
tpMaxWindow = 			[1, 1, 1, 1, 1, 1, 1, 1, 1, 1, 1, 1, 1, 1, 1, 1];		//[Flows]	//0 says not relevant/no maximum transfer rate; upper throughput limit
tpMaxChunks = 			[100000, 100000, 9, 100000, 100000, 100000, 7, 100000, 100000, 100000, 11, 100000, 100000, 100000, 25, 100000]; 		//maximum of chunks in above specified time frame
tpMinWindow = 			[11, 100000, 1, 100000, 12, 100000, 1, 100000, 11, 100000, 1, 100000, 12, 100000, 1, 100000];		//[Flows]  //1000 says not relevant / no minimum transfer rate
tpMinChunks = 			[27, 1, 3, 1, 42, 1, 1, 1, 66, 1, 2, 1, 51, 1, 25, 1]; 		//minimum of chunks in above specified time frame; lower throughput limit
latency = 				[10, 10, 4, 10, 10, 10, 4, 10, 10, 10, 4, 10, 10, 10, 4, 10];	
jitter = 				[10, 10, 4, 10, 10, 10, 4, 10, 10, 10, 4, 10, 10, 10, 4, 10];

hysteresis = 500;
importance = [
	[7, 0, 20, 7, 9, 0, 20, 7, 9, 0, 20, 9, 6, 0, 20, 8],	//deadline
	[1, 0, 10, 8, 2, 0, 10, 9, 5, 0, 10, 9, 4, 0, 10, 8],	//start time
	[, , , , , , , , , , , , , , , ],	//throughput upper bound
	[6, 0, 50, 0, 6, 0, 50, 0, 8, 0, 50, 0, 7, 0, 50, 0],	//throughput lower bound
	[6, 1, 3, 15, 4, 4, 4, 17, 6, 3, 4, 14, 6, 3, 3, 16],	//unsched
	[0, 0, 7, 0, 0, 0, 7, 0, 0, 0, 9, 0, 0, 0, 7, 0],	//latency
	[0, 0, 7, 0, 0, 0, 9, 0, 0, 0, 7, 0, 0, 0, 9, 0]	//jitter
]; //[ImportanceTypes, Flows]

//user profiles
userImportance = [8, 2, 10, 9, 8, 2, 9, 9, 7, 2, 9, 7, 8, 3, 8, 10]; //[Flows]
costImp = 25; //former willingness to pay is now inversely proportional value: cost importance 
 
